projet_m2_wvcp/original_wvcp_dzn/r15.clq.dzn
cliques=[{177,29,132,145,86,42,66,74,0,118,110,156},{7,5,2,6,0,3,4,9,8,1},{7,5,2,6,0,3,4,9,8,1},{79,122,149,16,36,3,182,160,23,170,58,114,69},{80,183,123,115,24,161,104,4,171,92,17,37},{150,25,162,5,184,49,138,59,18,124,105,38,116,81,93,70},{7,5,2,6,0,3,4,9,8,1},{7,164,82,19,62,152,174,196,107,141,39,95,127},{7,5,2,6,0,3,4,9,8,1},{176,72,97,197,153,129,83,40,9,188,50,64,27},{19,18,16,14,12,15,10,11,17,13},{19,18,16,14,12,15,10,11,17,13},{67,111,190,133,30,12,53,146,43,119},{99,76,134,54,88,157,20,112,32,13},{136,90,46,2,14,180,192,101,56,34},{19,18,16,14,12,15,10,11,17,13},{79,122,149,16,36,3,182,160,23,170,58,114,69},{80,183,123,115,24,161,104,4,171,92,17,37},{150,25,162,5,184,49,138,59,18,124,105,38,116,81,93,70},{7,164,82,19,62,152,174,196,107,141,39,95,127},{99,76,134,54,88,157,20,112,32,13},{25,21,20,22,24,26,23,27},{137,148,48,78,22,181,35,121,91,169,159,103},{79,122,149,16,36,3,182,160,23,170,58,114,69},{80,183,123,115,24,161,104,4,171,92,17,37},{150,25,162,5,184,49,138,59,18,124,105,38,116,81,93,70},{186,61,173,106,126,26,94,195,151,140},{176,72,97,197,153,129,83,40,9,188,50,64,27},{29,30,36,40,32,38,35,28,39,34,33,37,31},{177,29,132,145,86,42,66,74,0,118,110,156},{29,30,36,40,32,38,35,28,39,34,33,37,31},{29,30,36,40,32,38,35,28,39,34,33,37,31},{99,76,134,54,88,157,20,112,32,13},{113,135,147,158,77,179,55,120,45,167,89,33,100,191},{29,30,36,40,32,38,35,28,39,34,33,37,31},{137,148,48,78,22,181,35,121,91,169,159,103},{79,122,149,16,36,3,182,160,23,170,58,114,69},{80,183,123,115,24,161,104,4,171,92,17,37},{150,25,162,5,184,49,138,59,18,124,105,38,116,81,93,70},{7,164,82,19,62,152,174,196,107,141,39,95,127},{176,72,97,197,153,129,83,40,9,188,50,64,27},{48,42,49,46,44,45,43,41,47,50},{177,29,132,145,86,42,66,74,0,118,110,156},{67,111,190,133,30,12,53,146,43,119},{48,42,49,46,44,45,43,41,47,50},{113,135,147,158,77,179,55,120,45,167,89,33,100,191},{48,42,49,46,44,45,43,41,47,50},{48,42,49,46,44,45,43,41,47,50},{137,148,48,78,22,181,35,121,91,169,159,103},{150,25,162,5,184,49,138,59,18,124,105,38,116,81,93,70},{176,72,97,197,153,129,83,40,9,188,50,64,27},{57,52,61,54,62,59,55,53,60,58,56,63,51,64},{57,52,61,54,62,59,55,53,60,58,56,63,51,64},{57,52,61,54,62,59,55,53,60,58,56,63,51,64},{57,52,61,54,62,59,55,53,60,58,56,63,51,64},{113,135,147,158,77,179,55,120,45,167,89,33,100,191},{57,52,61,54,62,59,55,53,60,58,56,63,51,64},{57,52,61,54,62,59,55,53,60,58,56,63,51,64},{57,52,61,54,62,59,55,53,60,58,56,63,51,64},{150,25,162,5,184,49,138,59,18,124,105,38,116,81,93,70},{57,52,61,54,62,59,55,53,60,58,56,63,51,64},{57,52,61,54,62,59,55,53,60,58,56,63,51,64},{7,164,82,19,62,152,174,196,107,141,39,95,127},{57,52,61,54,62,59,55,53,60,58,56,63,51,64},{57,52,61,54,62,59,55,53,60,58,56,63,51,64},{65,154,84,10,165,28,41,143,130,108,51},{177,29,132,145,86,42,66,74,0,118,110,156},{67,111,190,133,30,12,53,146,43,119},{72,67,66,71,65,68,69,70},{79,122,149,16,36,3,182,160,23,170,58,114,69},{150,25,162,5,184,49,138,59,18,124,105,38,116,81,93,70},{163,125,6,71,117,139,194,172,60,185},{176,72,97,197,153,129,83,40,9,188,50,64,27},{79,80,76,82,78,74,77,83,75,81,73},{177,29,132,145,86,42,66,74,0,118,110,156},{79,80,76,82,78,74,77,83,75,81,73},{79,80,76,82,78,74,77,83,75,81,73},{113,135,147,158,77,179,55,120,45,167,89,33,100,191},{79,80,76,82,78,74,77,83,75,81,73},{79,80,76,82,78,74,77,83,75,81,73},{79,80,76,82,78,74,77,83,75,81,73},{150,25,162,5,184,49,138,59,18,124,105,38,116,81,93,70},{7,164,82,19,62,152,174,196,107,141,39,95,127},{79,80,76,82,78,74,77,83,75,81,73},{97,86,90,88,87,84,92,94,96,93,89,95,91,85},{97,86,90,88,87,84,92,94,96,93,89,95,91,85},{177,29,132,145,86,42,66,74,0,118,110,156},{97,86,90,88,87,84,92,94,96,93,89,95,91,85},{97,86,90,88,87,84,92,94,96,93,89,95,91,85},{113,135,147,158,77,179,55,120,45,167,89,33,100,191},{97,86,90,88,87,84,92,94,96,93,89,95,91,85},{97,86,90,88,87,84,92,94,96,93,89,95,91,85},{97,86,90,88,87,84,92,94,96,93,89,95,91,85},{150,25,162,5,184,49,138,59,18,124,105,38,116,81,93,70},{97,86,90,88,87,84,92,94,96,93,89,95,91,85},{7,164,82,19,62,152,174,196,107,141,39,95,127},{97,86,90,88,87,84,92,94,96,93,89,95,91,85},{176,72,97,197,153,129,83,40,9,188,50,64,27},{99,106,105,104,107,102,101,98,100,103},{99,76,134,54,88,157,20,112,32,13},{113,135,147,158,77,179,55,120,45,167,89,33,100,191},{136,90,46,2,14,180,192,101,56,34},{99,106,105,104,107,102,101,98,100,103},{137,148,48,78,22,181,35,121,91,169,159,103},{80,183,123,115,24,161,104,4,171,92,17,37},{150,25,162,5,184,49,138,59,18,124,105,38,116,81,93,70},{186,61,173,106,126,26,94,195,151,140},{7,164,82,19,62,152,174,196,107,141,39,95,127},{113,111,115,112,117,109,116,110,108,114},{113,111,115,112,117,109,116,110,108,114},{177,29,132,145,86,42,66,74,0,118,110,156},{113,111,115,112,117,109,116,110,108,114},{99,76,134,54,88,157,20,112,32,13},{113,135,147,158,77,179,55,120,45,167,89,33,100,191},{79,122,149,16,36,3,182,160,23,170,58,114,69},{80,183,123,115,24,161,104,4,171,92,17,37},{150,25,162,5,184,49,138,59,18,124,105,38,116,81,93,70},{113,111,115,112,117,109,116,110,108,114},{177,29,132,145,86,42,66,74,0,118,110,156},{122,123,125,129,124,126,120,118,119,121,127,128},{113,135,147,158,77,179,55,120,45,167,89,33,100,191},{137,148,48,78,22,181,35,121,91,169,159,103},{79,122,149,16,36,3,182,160,23,170,58,114,69},{80,183,123,115,24,161,104,4,171,92,17,37},{150,25,162,5,184,49,138,59,18,124,105,38,116,81,93,70},{122,123,125,129,124,126,120,118,119,121,127,128},{122,123,125,129,124,126,120,118,119,121,127,128},{7,164,82,19,62,152,174,196,107,141,39,95,127},{122,123,125,129,124,126,120,118,119,121,127,128},{176,72,97,197,153,129,83,40,9,188,50,64,27},{137,135,132,136,134,138,142,133,139,141,130,131,140},{137,135,132,136,134,138,142,133,139,141,130,131,140},{137,135,132,136,134,138,142,133,139,141,130,131,140},{137,135,132,136,134,138,142,133,139,141,130,131,140},{137,135,132,136,134,138,142,133,139,141,130,131,140},{137,135,132,136,134,138,142,133,139,141,130,131,140},{137,135,132,136,134,138,142,133,139,141,130,131,140},{137,135,132,136,134,138,142,133,139,141,130,131,140},{150,25,162,5,184,49,138,59,18,124,105,38,116,81,93,70},{137,135,132,136,134,138,142,133,139,141,130,131,140},{137,135,132,136,134,138,142,133,139,141,130,131,140},{137,135,132,136,134,138,142,133,139,141,130,131,140},{137,135,132,136,134,138,142,133,139,141,130,131,140},{150,147,148,145,144,152,149,153,151,146,143},{150,147,148,145,144,152,149,153,151,146,143},{177,29,132,145,86,42,66,74,0,118,110,156},{150,147,148,145,144,152,149,153,151,146,143},{113,135,147,158,77,179,55,120,45,167,89,33,100,191},{150,147,148,145,144,152,149,153,151,146,143},{150,147,148,145,144,152,149,153,151,146,143},{150,25,162,5,184,49,138,59,18,124,105,38,116,81,93,70},{150,147,148,145,144,152,149,153,151,146,143},{7,164,82,19,62,152,174,196,107,141,39,95,127},{176,72,97,197,153,129,83,40,9,188,50,64,27},{162,163,164,158,155,157,154,161,160,156,159},{162,163,164,158,155,157,154,161,160,156,159},{177,29,132,145,86,42,66,74,0,118,110,156},{162,163,164,158,155,157,154,161,160,156,159},{113,135,147,158,77,179,55,120,45,167,89,33,100,191},{162,163,164,158,155,157,154,161,160,156,159},{162,163,164,158,155,157,154,161,160,156,159},{162,163,164,158,155,157,154,161,160,156,159},{150,25,162,5,184,49,138,59,18,124,105,38,116,81,93,70},{162,163,164,158,155,157,154,161,160,156,159},{7,164,82,19,62,152,174,196,107,141,39,95,127},{166,176,173,168,174,175,171,172,165,167,170,169},{166,176,173,168,174,175,171,172,165,167,170,169},{113,135,147,158,77,179,55,120,45,167,89,33,100,191},{166,176,173,168,174,175,171,172,165,167,170,169},{166,176,173,168,174,175,171,172,165,167,170,169},{166,176,173,168,174,175,171,172,165,167,170,169},{80,183,123,115,24,161,104,4,171,92,17,37},{166,176,173,168,174,175,171,172,165,167,170,169},{166,176,173,168,174,175,171,172,165,167,170,169},{7,164,82,19,62,152,174,196,107,141,39,95,127},{166,176,173,168,174,175,171,172,165,167,170,169},{176,72,97,197,153,129,83,40,9,188,50,64,27},{177,29,132,145,86,42,66,74,0,118,110,156},{186,177,183,184,178,179,181,182,180,188,187,185},{113,135,147,158,77,179,55,120,45,167,89,33,100,191},{186,177,183,184,178,179,181,182,180,188,187,185},{186,177,183,184,178,179,181,182,180,188,187,185},{186,177,183,184,178,179,181,182,180,188,187,185},{186,177,183,184,178,179,181,182,180,188,187,185},{150,25,162,5,184,49,138,59,18,124,105,38,116,81,93,70},{186,177,183,184,178,179,181,182,180,188,187,185},{186,177,183,184,178,179,181,182,180,188,187,185},{186,177,183,184,178,179,181,182,180,188,187,185},{176,72,97,197,153,129,83,40,9,188,50,64,27},{193,190,197,196,194,195,189,192,191},{67,111,190,133,30,12,53,146,43,119},{113,135,147,158,77,179,55,120,45,167,89,33,100,191},{136,90,46,2,14,180,192,101,56,34},{193,190,197,196,194,195,189,192,191},{163,125,6,71,117,139,194,172,60,185},{186,61,173,106,126,26,94,195,151,140},{7,164,82,19,62,152,174,196,107,141,39,95,127},{176,72,97,197,153,129,83,40,9,188,50,64,27}];
nr_cliques=198;
