projet_m2_wvcp/original_wvcp_dzn/r15.dzn
name="r15";
nr_vertices=198;
nr_edges=2055;
neighborhoods=[{1,2,3,4,5,6,7,8,9,29,42,66,74,86,110,118,132,145,156,177},{0,2,3,4,5,6,7,8,9,31,44,68,75,87,98,166,178},{0,1,3,4,5,6,7,8,9,14,34,46,56,90,101,136,180,192},{0,1,2,4,5,6,7,8,9,16,23,36,58,69,79,114,122,149,160,170,182},{0,1,2,3,5,6,7,8,9,17,24,37,80,92,104,115,123,161,171,183},{0,1,2,3,4,6,7,8,9,18,25,38,49,59,70,81,93,105,116,124,138,150,162,184},{0,1,2,3,4,5,7,8,9,60,71,117,125,139,163,172,185,194},{0,1,2,3,4,5,6,8,9,19,39,62,82,95,107,127,141,152,164,174,196},{0,1,2,3,4,5,6,7,9,63,96,128,142,175,187},{0,1,2,3,4,5,6,7,8,27,40,50,64,72,83,97,129,153,176,188,197},{11,12,13,14,15,16,17,18,19,28,41,51,65,84,108,130,143,154,165},{10,12,13,14,15,16,17,18,19,52,73,85,109,131,144,155,189},{10,11,13,14,15,16,17,18,19,30,43,53,67,111,119,133,146,190},{10,11,12,14,15,16,17,18,19,20,32,54,76,88,99,112,134,157},{2,10,11,12,13,15,16,17,18,19,34,46,56,90,101,136,180,192},{10,11,12,13,14,16,17,18,19,21,47,57,102,168,193},{3,10,11,12,13,14,15,17,18,19,23,36,58,69,79,114,122,149,160,170,182},{4,10,11,12,13,14,15,16,18,19,24,37,80,92,104,115,123,161,171,183},{5,10,11,12,13,14,15,16,17,19,25,38,49,59,70,81,93,105,116,124,138,150,162,184},{7,10,11,12,13,14,15,16,17,18,39,62,82,95,107,127,141,152,164,174,196},{13,21,22,23,24,25,26,27,32,54,76,88,99,112,134,157},{15,20,22,23,24,25,26,27,47,57,102,168,193},{20,21,23,24,25,26,27,35,48,78,91,103,121,137,148,159,169,181},{3,16,20,21,22,24,25,26,27,36,58,69,79,114,122,149,160,170,182},{4,17,20,21,22,23,25,26,27,37,80,92,104,115,123,161,171,183},{5,18,20,21,22,23,24,26,27,38,49,59,70,81,93,105,116,124,138,150,162,184},{20,21,22,23,24,25,27,61,94,106,126,140,151,173,186,195},{9,20,21,22,23,24,25,26,40,50,64,72,83,97,129,153,176,188,197},{10,29,30,31,32,33,34,35,36,37,38,39,40,41,51,65,84,108,130,143,154,165},{0,28,30,31,32,33,34,35,36,37,38,39,40,42,66,74,86,110,118,132,145,156,177},{12,28,29,31,32,33,34,35,36,37,38,39,40,43,53,67,111,119,133,146,190},{1,28,29,30,32,33,34,35,36,37,38,39,40,44,68,75,87,98,166,178},{13,20,28,29,30,31,33,34,35,36,37,38,39,40,54,76,88,99,112,134,157},{28,29,30,31,32,34,35,36,37,38,39,40,45,55,77,89,100,113,120,135,147,158,167,179,191},{2,14,28,29,30,31,32,33,35,36,37,38,39,40,46,56,90,101,136,180,192},{22,28,29,30,31,32,33,34,36,37,38,39,40,48,78,91,103,121,137,148,159,169,181},{3,16,23,28,29,30,31,32,33,34,35,37,38,39,40,58,69,79,114,122,149,160,170,182},{4,17,24,28,29,30,31,32,33,34,35,36,38,39,40,80,92,104,115,123,161,171,183},{5,18,25,28,29,30,31,32,33,34,35,36,37,39,40,49,59,70,81,93,105,116,124,138,150,162,184},{7,19,28,29,30,31,32,33,34,35,36,37,38,40,62,82,95,107,127,141,152,164,174,196},{9,27,28,29,30,31,32,33,34,35,36,37,38,39,50,64,72,83,97,129,153,176,188,197},{10,28,42,43,44,45,46,47,48,49,50,51,65,84,108,130,143,154,165},{0,29,41,43,44,45,46,47,48,49,50,66,74,86,110,118,132,145,156,177},{12,30,41,42,44,45,46,47,48,49,50,53,67,111,119,133,146,190},{1,31,41,42,43,45,46,47,48,49,50,68,75,87,98,166,178},{33,41,42,43,44,46,47,48,49,50,55,77,89,100,113,120,135,147,158,167,179,191},{2,14,34,41,42,43,44,45,47,48,49,50,56,90,101,136,180,192},{15,21,41,42,43,44,45,46,48,49,50,57,102,168,193},{22,35,41,42,43,44,45,46,47,49,50,78,91,103,121,137,148,159,169,181},{5,18,25,38,41,42,43,44,45,46,47,48,50,59,70,81,93,105,116,124,138,150,162,184},{9,27,40,41,42,43,44,45,46,47,48,49,64,72,83,97,129,153,176,188,197},{10,28,41,52,53,54,55,56,57,58,59,60,61,62,63,64,65,84,108,130,143,154,165},{11,51,53,54,55,56,57,58,59,60,61,62,63,64,73,85,109,131,144,155,189},{12,30,43,51,52,54,55,56,57,58,59,60,61,62,63,64,67,111,119,133,146,190},{13,20,32,51,52,53,55,56,57,58,59,60,61,62,63,64,76,88,99,112,134,157},{33,45,51,52,53,54,56,57,58,59,60,61,62,63,64,77,89,100,113,120,135,147,158,167,179,191},{2,14,34,46,51,52,53,54,55,57,58,59,60,61,62,63,64,90,101,136,180,192},{15,21,47,51,52,53,54,55,56,58,59,60,61,62,63,64,102,168,193},{3,16,23,36,51,52,53,54,55,56,57,59,60,61,62,63,64,69,79,114,122,149,160,170,182},{5,18,25,38,49,51,52,53,54,55,56,57,58,60,61,62,63,64,70,81,93,105,116,124,138,150,162,184},{6,51,52,53,54,55,56,57,58,59,61,62,63,64,71,117,125,139,163,172,185,194},{26,51,52,53,54,55,56,57,58,59,60,62,63,64,94,106,126,140,151,173,186,195},{7,19,39,51,52,53,54,55,56,57,58,59,60,61,63,64,82,95,107,127,141,152,164,174,196},{8,51,52,53,54,55,56,57,58,59,60,61,62,64,96,128,142,175,187},{9,27,40,50,51,52,53,54,55,56,57,58,59,60,61,62,63,72,83,97,129,153,176,188,197},{10,28,41,51,66,67,68,69,70,71,72,84,108,130,143,154,165},{0,29,42,65,67,68,69,70,71,72,74,86,110,118,132,145,156,177},{12,30,43,53,65,66,68,69,70,71,72,111,119,133,146,190},{1,31,44,65,66,67,69,70,71,72,75,87,98,166,178},{3,16,23,36,58,65,66,67,68,70,71,72,79,114,122,149,160,170,182},{5,18,25,38,49,59,65,66,67,68,69,71,72,81,93,105,116,124,138,150,162,184},{6,60,65,66,67,68,69,70,72,117,125,139,163,172,185,194},{9,27,40,50,64,65,66,67,68,69,70,71,83,97,129,153,176,188,197},{11,52,74,75,76,77,78,79,80,81,82,83,85,109,131,144,155,189},{0,29,42,66,73,75,76,77,78,79,80,81,82,83,86,110,118,132,145,156,177},{1,31,44,68,73,74,76,77,78,79,80,81,82,83,87,98,166,178},{13,20,32,54,73,74,75,77,78,79,80,81,82,83,88,99,112,134,157},{33,45,55,73,74,75,76,78,79,80,81,82,83,89,100,113,120,135,147,158,167,179,191},{22,35,48,73,74,75,76,77,79,80,81,82,83,91,103,121,137,148,159,169,181},{3,16,23,36,58,69,73,74,75,76,77,78,80,81,82,83,114,122,149,160,170,182},{4,17,24,37,73,74,75,76,77,78,79,81,82,83,92,104,115,123,161,171,183},{5,18,25,38,49,59,70,73,74,75,76,77,78,79,80,82,83,93,105,116,124,138,150,162,184},{7,19,39,62,73,74,75,76,77,78,79,80,81,83,95,107,127,141,152,164,174,196},{9,27,40,50,64,72,73,74,75,76,77,78,79,80,81,82,97,129,153,176,188,197},{10,28,41,51,65,85,86,87,88,89,90,91,92,93,94,95,96,97,108,130,143,154,165},{11,52,73,84,86,87,88,89,90,91,92,93,94,95,96,97,109,131,144,155,189},{0,29,42,66,74,84,85,87,88,89,90,91,92,93,94,95,96,97,110,118,132,145,156,177},{1,31,44,68,75,84,85,86,88,89,90,91,92,93,94,95,96,97,98,166,178},{13,20,32,54,76,84,85,86,87,89,90,91,92,93,94,95,96,97,99,112,134,157},{33,45,55,77,84,85,86,87,88,90,91,92,93,94,95,96,97,100,113,120,135,147,158,167,179,191},{2,14,34,46,56,84,85,86,87,88,89,91,92,93,94,95,96,97,101,136,180,192},{22,35,48,78,84,85,86,87,88,89,90,92,93,94,95,96,97,103,121,137,148,159,169,181},{4,17,24,37,80,84,85,86,87,88,89,90,91,93,94,95,96,97,104,115,123,161,171,183},{5,18,25,38,49,59,70,81,84,85,86,87,88,89,90,91,92,94,95,96,97,105,116,124,138,150,162,184},{26,61,84,85,86,87,88,89,90,91,92,93,95,96,97,106,126,140,151,173,186,195},{7,19,39,62,82,84,85,86,87,88,89,90,91,92,93,94,96,97,107,127,141,152,164,174,196},{8,63,84,85,86,87,88,89,90,91,92,93,94,95,97,128,142,175,187},{9,27,40,50,64,72,83,84,85,86,87,88,89,90,91,92,93,94,95,96,129,153,176,188,197},{1,31,44,68,75,87,99,100,101,102,103,104,105,106,107,166,178},{13,20,32,54,76,88,98,100,101,102,103,104,105,106,107,112,134,157},{33,45,55,77,89,98,99,101,102,103,104,105,106,107,113,120,135,147,158,167,179,191},{2,14,34,46,56,90,98,99,100,102,103,104,105,106,107,136,180,192},{15,21,47,57,98,99,100,101,103,104,105,106,107,168,193},{22,35,48,78,91,98,99,100,101,102,104,105,106,107,121,137,148,159,169,181},{4,17,24,37,80,92,98,99,100,101,102,103,105,106,107,115,123,161,171,183},{5,18,25,38,49,59,70,81,93,98,99,100,101,102,103,104,106,107,116,124,138,150,162,184},{26,61,94,98,99,100,101,102,103,104,105,107,126,140,151,173,186,195},{7,19,39,62,82,95,98,99,100,101,102,103,104,105,106,127,141,152,164,174,196},{10,28,41,51,65,84,109,110,111,112,113,114,115,116,117,130,143,154,165},{11,52,73,85,108,110,111,112,113,114,115,116,117,131,144,155,189},{0,29,42,66,74,86,108,109,111,112,113,114,115,116,117,118,132,145,156,177},{12,30,43,53,67,108,109,110,112,113,114,115,116,117,119,133,146,190},{13,20,32,54,76,88,99,108,109,110,111,113,114,115,116,117,134,157},{33,45,55,77,89,100,108,109,110,111,112,114,115,116,117,120,135,147,158,167,179,191},{3,16,23,36,58,69,79,108,109,110,111,112,113,115,116,117,122,149,160,170,182},{4,17,24,37,80,92,104,108,109,110,111,112,113,114,116,117,123,161,171,183},{5,18,25,38,49,59,70,81,93,105,108,109,110,111,112,113,114,115,117,124,138,150,162,184},{6,60,71,108,109,110,111,112,113,114,115,116,125,139,163,172,185,194},{0,29,42,66,74,86,110,119,120,121,122,123,124,125,126,127,128,129,132,145,156,177},{12,30,43,53,67,111,118,120,121,122,123,124,125,126,127,128,129,133,146,190},{33,45,55,77,89,100,113,118,119,121,122,123,124,125,126,127,128,129,135,147,158,167,179,191},{22,35,48,78,91,103,118,119,120,122,123,124,125,126,127,128,129,137,148,159,169,181},{3,16,23,36,58,69,79,114,118,119,120,121,123,124,125,126,127,128,129,149,160,170,182},{4,17,24,37,80,92,104,115,118,119,120,121,122,124,125,126,127,128,129,161,171,183},{5,18,25,38,49,59,70,81,93,105,116,118,119,120,121,122,123,125,126,127,128,129,138,150,162,184},{6,60,71,117,118,119,120,121,122,123,124,126,127,128,129,139,163,172,185,194},{26,61,94,106,118,119,120,121,122,123,124,125,127,128,129,140,151,173,186,195},{7,19,39,62,82,95,107,118,119,120,121,122,123,124,125,126,128,129,141,152,164,174,196},{8,63,96,118,119,120,121,122,123,124,125,126,127,129,142,175,187},{9,27,40,50,64,72,83,97,118,119,120,121,122,123,124,125,126,127,128,153,176,188,197},{10,28,41,51,65,84,108,131,132,133,134,135,136,137,138,139,140,141,142,143,154,165},{11,52,73,85,109,130,132,133,134,135,136,137,138,139,140,141,142,144,155,189},{0,29,42,66,74,86,110,118,130,131,133,134,135,136,137,138,139,140,141,142,145,156,177},{12,30,43,53,67,111,119,130,131,132,134,135,136,137,138,139,140,141,142,146,190},{13,20,32,54,76,88,99,112,130,131,132,133,135,136,137,138,139,140,141,142,157},{33,45,55,77,89,100,113,120,130,131,132,133,134,136,137,138,139,140,141,142,147,158,167,179,191},{2,14,34,46,56,90,101,130,131,132,133,134,135,137,138,139,140,141,142,180,192},{22,35,48,78,91,103,121,130,131,132,133,134,135,136,138,139,140,141,142,148,159,169,181},{5,18,25,38,49,59,70,81,93,105,116,124,130,131,132,133,134,135,136,137,139,140,141,142,150,162,184},{6,60,71,117,125,130,131,132,133,134,135,136,137,138,140,141,142,163,172,185,194},{26,61,94,106,126,130,131,132,133,134,135,136,137,138,139,141,142,151,173,186,195},{7,19,39,62,82,95,107,127,130,131,132,133,134,135,136,137,138,139,140,142,152,164,174,196},{8,63,96,128,130,131,132,133,134,135,136,137,138,139,140,141,175,187},{10,28,41,51,65,84,108,130,144,145,146,147,148,149,150,151,152,153,154,165},{11,52,73,85,109,131,143,145,146,147,148,149,150,151,152,153,155,189},{0,29,42,66,74,86,110,118,132,143,144,146,147,148,149,150,151,152,153,156,177},{12,30,43,53,67,111,119,133,143,144,145,147,148,149,150,151,152,153,190},{33,45,55,77,89,100,113,120,135,143,144,145,146,148,149,150,151,152,153,158,167,179,191},{22,35,48,78,91,103,121,137,143,144,145,146,147,149,150,151,152,153,159,169,181},{3,16,23,36,58,69,79,114,122,143,144,145,146,147,148,150,151,152,153,160,170,182},{5,18,25,38,49,59,70,81,93,105,116,124,138,143,144,145,146,147,148,149,151,152,153,162,184},{26,61,94,106,126,140,143,144,145,146,147,148,149,150,152,153,173,186,195},{7,19,39,62,82,95,107,127,141,143,144,145,146,147,148,149,150,151,153,164,174,196},{9,27,40,50,64,72,83,97,129,143,144,145,146,147,148,149,150,151,152,176,188,197},{10,28,41,51,65,84,108,130,143,155,156,157,158,159,160,161,162,163,164,165},{11,52,73,85,109,131,144,154,156,157,158,159,160,161,162,163,164,189},{0,29,42,66,74,86,110,118,132,145,154,155,157,158,159,160,161,162,163,164,177},{13,20,32,54,76,88,99,112,134,154,155,156,158,159,160,161,162,163,164},{33,45,55,77,89,100,113,120,135,147,154,155,156,157,159,160,161,162,163,164,167,179,191},{22,35,48,78,91,103,121,137,148,154,155,156,157,158,160,161,162,163,164,169,181},{3,16,23,36,58,69,79,114,122,149,154,155,156,157,158,159,161,162,163,164,170,182},{4,17,24,37,80,92,104,115,123,154,155,156,157,158,159,160,162,163,164,171,183},{5,18,25,38,49,59,70,81,93,105,116,124,138,150,154,155,156,157,158,159,160,161,163,164,184},{6,60,71,117,125,139,154,155,156,157,158,159,160,161,162,164,172,185,194},{7,19,39,62,82,95,107,127,141,152,154,155,156,157,158,159,160,161,162,163,174,196},{10,28,41,51,65,84,108,130,143,154,166,167,168,169,170,171,172,173,174,175,176},{1,31,44,68,75,87,98,165,167,168,169,170,171,172,173,174,175,176,178},{33,45,55,77,89,100,113,120,135,147,158,165,166,168,169,170,171,172,173,174,175,176,179,191},{15,21,47,57,102,165,166,167,169,170,171,172,173,174,175,176,193},{22,35,48,78,91,103,121,137,148,159,165,166,167,168,170,171,172,173,174,175,176,181},{3,16,23,36,58,69,79,114,122,149,160,165,166,167,168,169,171,172,173,174,175,176,182},{4,17,24,37,80,92,104,115,123,161,165,166,167,168,169,170,172,173,174,175,176,183},{6,60,71,117,125,139,163,165,166,167,168,169,170,171,173,174,175,176,185,194},{26,61,94,106,126,140,151,165,166,167,168,169,170,171,172,174,175,176,186,195},{7,19,39,62,82,95,107,127,141,152,164,165,166,167,168,169,170,171,172,173,175,176,196},{8,63,96,128,142,165,166,167,168,169,170,171,172,173,174,176,187},{9,27,40,50,64,72,83,97,129,153,165,166,167,168,169,170,171,172,173,174,175,188,197},{0,29,42,66,74,86,110,118,132,145,156,178,179,180,181,182,183,184,185,186,187,188},{1,31,44,68,75,87,98,166,177,179,180,181,182,183,184,185,186,187,188},{33,45,55,77,89,100,113,120,135,147,158,167,177,178,180,181,182,183,184,185,186,187,188,191},{2,14,34,46,56,90,101,136,177,178,179,181,182,183,184,185,186,187,188,192},{22,35,48,78,91,103,121,137,148,159,169,177,178,179,180,182,183,184,185,186,187,188},{3,16,23,36,58,69,79,114,122,149,160,170,177,178,179,180,181,183,184,185,186,187,188},{4,17,24,37,80,92,104,115,123,161,171,177,178,179,180,181,182,184,185,186,187,188},{5,18,25,38,49,59,70,81,93,105,116,124,138,150,162,177,178,179,180,181,182,183,185,186,187,188},{6,60,71,117,125,139,163,172,177,178,179,180,181,182,183,184,186,187,188,194},{26,61,94,106,126,140,151,173,177,178,179,180,181,182,183,184,185,187,188,195},{8,63,96,128,142,175,177,178,179,180,181,182,183,184,185,186,188},{9,27,40,50,64,72,83,97,129,153,176,177,178,179,180,181,182,183,184,185,186,187,197},{11,52,73,85,109,131,144,155,190,191,192,193,194,195,196,197},{12,30,43,53,67,111,119,133,146,189,191,192,193,194,195,196,197},{33,45,55,77,89,100,113,120,135,147,158,167,179,189,190,192,193,194,195,196,197},{2,14,34,46,56,90,101,136,180,189,190,191,193,194,195,196,197},{15,21,47,57,102,168,189,190,191,192,194,195,196,197},{6,60,71,117,125,139,163,172,185,189,190,191,192,193,195,196,197},{26,61,94,106,126,140,151,173,186,189,190,191,192,193,194,196,197},{7,19,39,62,82,95,107,127,141,152,164,174,189,190,191,192,193,194,195,197},{9,27,40,50,64,72,83,97,129,153,176,188,189,190,191,192,193,194,195,196}];
weights=[452,232,520,407,400,636,509,702,253,377,387,271,435,238,454,418,455,245,503,589,541,553,530,318,520,679,414,209,313,652,455,220,423,237,244,376,446,228,403,298,446,313,581,317,357,334,533,312,608,558,276,234,593,324,554,499,274,670,276,513,318,575,547,255,213,488,575,623,321,250,206,501,635,279,557,450,618,526,575,667,637,375,617,457,417,235,588,431,547,282,561,241,375,287,373,272,341,597,292,669,211,303,384,202,405,412,526,399,271,434,339,593,491,701,263,527,380,483,350,283,370,277,536,531,447,522,437,212,209,471,293,255,640,491,587,681,615,693,556,408,237,342,498,305,561,609,323,652,637,535,682,332,538,531,457,549,319,546,590,228,348,412,665,653,628,317,696,300,517,229,285,386,346,529,489,410,662,663,509,508,326,506,402,622,611,254,678,265,297,323,579,210,320,632,370,356,464,566];
